
Gurobi 12.0.2 (mac64[arm]) logging started Fri Jun 13 23:36:50 2025

Set parameter LogFile to value "/Users/yurunfeng/Documents/GitHub/LRGTS-store-location/result/gurobi/snyder/150nodes/150-0.9-5.log"
Gurobi Optimizer version 12.0.2 build v12.0.2rc0 (mac64[arm] - Darwin 24.5.0 24F74)

CPU model: Apple M4
Thread count: 10 physical cores, 10 logical processors, using up to 10 threads

Non-default parameters:
TimeLimit  1200

Optimize a model with 3510600 rows, 6795450 columns and 32209486 nonzeros
Model fingerprint: 0xc159b671
Variable types: 3397650 continuous, 3397800 integer (3397800 binary)
Coefficient statistics:
  Matrix range     [1e-01, 1e+00]
  Objective range  [9e+01, 8e+06]
  Bounds range     [1e+00, 1e+00]
  RHS range        [1e+00, 5e+00]
Found heuristic solution: objective 6.624322e+07
Presolve removed 22800 rows and 22650 columns (presolve time = 5s)...
Presolve removed 22800 rows and 22650 columns (presolve time = 10s)...
Presolve removed 45300 rows and 22650 columns (presolve time = 15s)...
Presolve removed 45300 rows and 22650 columns (presolve time = 21s)...
Presolve removed 45300 rows and 22650 columns (presolve time = 25s)...
Presolve removed 45300 rows and 22650 columns (presolve time = 30s)...
Presolve removed 45300 rows and 22650 columns (presolve time = 40s)...
Presolve removed 45300 rows and 22650 columns (presolve time = 45s)...
Presolve removed 45300 rows and 22650 columns (presolve time = 50s)...
Presolve removed 45300 rows and 22650 columns (presolve time = 80s)...
Presolve removed 45300 rows and 22650 columns (presolve time = 80s)...
Presolve removed 45300 rows and 22650 columns (presolve time = 87s)...
Presolve removed 45300 rows and 22650 columns (presolve time = 90s)...
Presolve removed 45300 rows and 22650 columns
Presolve time: 91.63s
Presolved: 3465300 rows, 6772800 columns, 29013879 nonzeros
Variable types: 3375000 continuous, 3397800 integer (3397800 binary)
Deterministic concurrent LP optimizer: primal simplex, dual simplex, and barrier
Showing barrier log only...

Root barrier log...

Elapsed ordering time = 13s
Elapsed ordering time = 15s
Ordering time: 18.17s

Barrier performed 0 iterations in 123.35 seconds (260.87 work units)
Barrier solve interrupted - model solved by another algorithm

Concurrent spin time: 8.35s (can be avoided by choosing Method=3)

Solved with dual simplex

Root simplex log...

Iteration    Objective       Primal Inf.    Dual Inf.      Time
   25240    2.3186993e+06   0.000000e+00   0.000000e+00    124s

Root relaxation: objective 2.318699e+06, 25240 iterations, 29.34 seconds (43.22 work units)

    Nodes    |    Current Node    |     Objective Bounds      |     Work
 Expl Unexpl |  Obj  Depth IntInf | Incumbent    BestBd   Gap | It/Node Time

     0     0 2318699.27    0 3101 6.6243e+07 2318699.27  96.5%     -  136s
H    0     0                    3225644.9480 2318699.27  28.1%     -  174s
H    0     0                    2800441.6158 2318699.27  17.2%     -  217s
     0     0 2342707.51    0 7751 2800441.62 2342707.51  16.3%     -  530s
H    0     0                    2691297.3358 2342711.63  13.0%     -  688s
H    0     0                    2651787.0263 2342711.63  11.7%     -  731s
H    0     0                    2649348.8163 2342711.63  11.6%     -  796s
H    0     0                    2649064.1396 2342711.63  11.6%     -  796s
H    0     0                    2635670.9570 2342711.63  11.1%     -  850s
H    0     0                    2635554.8887 2342711.63  11.1%     -  850s
     0     0 2343701.43    0 7589 2635554.89 2343701.43  11.1%     -  882s
     0     0 2343737.62    0 7576 2635554.89 2343737.62  11.1%     -  911s
     0     0 2343737.62    0 7577 2635554.89 2343737.62  11.1%     -  934s
     0     0          -    0      2635554.89 2343737.62  11.1%     - 1200s

Cutting planes:
  Cover: 4
  Clique: 5
  MIR: 446
  Flow cover: 1245
  RLT: 126

Explored 1 nodes (107588 simplex iterations) in 1200.59 seconds (1830.94 work units)
Thread count was 10 (of 10 available processors)

Solution count 10: 2.63555e+06 2.63555e+06 2.63567e+06 ... 6.62432e+07

Time limit reached
Best objective 2.635554888753e+06, best bound 2.343737618752e+06, gap 11.0723%
